39 500
6 132
9 144
10 133
5 174
9 137
9 121
11 117
8 177
6 144
5 104
7 107
5 176
9 133
7 173
11 107
4 181
11 138
9 181
10 121
2 133
6 174
3 188
10 177
4 173
7 20
6 132
11 189
8 138
4 188
3 117
11 176
9 103
6 103
8 133
10 171
5 104
8 137
3 189
4 171
